NAME : rnd27_50.tsp
TYPE : TSP
DIMENSION : 50
EDGE_WEIGHT_TYPE : EUC_2D
NODE_COORD_SECTION
1 567 701
2 548 202
3 137 236
4 326 82
5 348 450
6 106 572
7 795 274
8 397 150
9 186 588
10 540 781
11 695 761
12 308 562
13 519 846
14 369 40
15 652 626
16 742 664
17 315 467
18 444 805
19 989 687
20 458 747
21 223 490
22 378 836
23 732 148
24 975 222
25 606 132
26 282 171
27 474 154
28 546 610
29 781 495
30 33 244
31 573 377
32 219 189
33 166 897
34 630 864
35 384 989
36 238 269
37 365 778
38 722 528
39 735 171
40 415 89
41 13 869
42 505 95
43 777 452
44 539 718
45 559 747
46 144 614
47 299 652
48 674 532
49 513 710
50 270 532
